p cnf 445 1478
      -1    -362       0
      -1    -427       0
    -362    -427       0
      -2     -47       0
      -2    -136       0
      -2    -374       0
     -47    -136       0
     -47    -374       0
    -136    -374       0
      -3    -137       0
      -3    -212       0
      -3    -272       0
      -3    -375       0
    -137    -212       0
    -137    -272       0
    -137    -375       0
    -212    -272       0
    -212    -375       0
    -272    -375       0
      -4     -48       0
      -4    -213       0
      -4    -273       0
     -48    -213       0
     -48    -273       0
    -213    -273       0
     -49    -138       0
     -49    -214       0
     -49    -274       0
    -138    -214       0
    -138    -274       0
    -214    -274       0
    -215    -363       0
      -5     -50       0
      -5    -139       0
      -5    -376       0
     -50    -139       0
     -50    -376       0
    -139    -376       0
      -6    -216       0
      -6    -428       0
    -216    -428       0
      -7    -312       0
     -71    -313       0
      -8    -275       0
      -8    -314       0
      -8    -339       0
    -275    -314       0
    -275    -339       0
    -314    -339       0
    -276    -315       0
     -72    -340       0
      -9    -429       0
     -10    -430       0
    -100    -364       0
    -100    -396       0
    -364    -396       0
     -73    -397       0
    -101    -217       0
    -101    -277       0
    -101    -365       0
    -217    -277       0
    -217    -365       0
    -277    -365       0
     -74    -159       0
     -74    -278       0
     -74    -398       0
    -159    -278       0
    -159    -398       0
    -278    -398       0
    -218    -279       0
    -280    -392       0
    -102    -160       0
    -102    -366       0
    -160    -366       0
     -75    -161       0
     -75    -281       0
     -75    -393       0
    -161    -281       0
    -161    -393       0
    -281    -393       0
     -11    -103       0
     -11    -162       0
     -11    -431       0
    -103    -162       0
    -103    -431       0
    -162    -431       0
     -12    -219       0
     -13    -104       0
     -13    -220       0
    -104    -220       0
     -14    -105       0
     -14    -163       0
     -14    -432       0
    -105    -163       0
    -105    -432       0
    -163    -432       0
     -15    -164       0
     -15    -221       0
    -164    -221       0
    -341    -436       0
    -342    -437       0
     -16    -106       0
     -16    -238       0
     -16    -254       0
     -16    -367       0
    -106    -238       0
    -106    -254       0
    -106    -367       0
    -238    -254       0
    -238    -367       0
    -254    -367       0
     -17     -51       0
     -17    -107       0
     -17    -140       0
     -17    -165       0
     -17    -239       0
     -17    -255       0
     -17    -377       0
     -51    -107       0
     -51    -140       0
     -51    -165       0
     -51    -239       0
     -51    -255       0
     -51    -377       0
    -107    -140       0
    -107    -165       0
    -107    -239       0
    -107    -255       0
    -107    -377       0
    -140    -165       0
    -140    -239       0
    -140    -255       0
    -140    -377       0
    -165    -239       0
    -165    -255       0
    -165    -377       0
    -239    -255       0
    -239    -377       0
    -255    -377       0
     -18    -108       0
     -18    -240       0
     -18    -282       0
     -18    -368       0
     -18    -378       0
    -108    -240       0
    -108    -282       0
    -108    -368       0
    -108    -378       0
    -240    -282       0
    -240    -368       0
    -240    -378       0
    -282    -368       0
    -282    -378       0
    -368    -378       0
     -19     -52       0
     -19    -109       0
     -19    -256       0
     -19    -283       0
     -52    -109       0
     -52    -256       0
     -52    -283       0
    -109    -256       0
    -109    -283       0
    -256    -283       0
     -53     -76       0
     -53    -166       0
     -53    -257       0
     -53    -284       0
     -53    -379       0
     -76    -166       0
     -76    -257       0
     -76    -284       0
     -76    -379       0
    -166    -257       0
    -166    -284       0
    -166    -379       0
    -257    -284       0
    -257    -379       0
    -284    -379       0
     -20     -77       0
     -20    -110       0
     -20    -167       0
     -20    -285       0
     -77    -110       0
     -77    -167       0
     -77    -285       0
    -110    -167       0
    -110    -285       0
    -167    -285       0
     -54    -141       0
     -54    -286       0
    -141    -286       0
     -21     -55       0
     -21    -142       0
     -21    -168       0
     -21    -287       0
     -55    -142       0
     -55    -168       0
     -55    -287       0
    -142    -168       0
    -142    -287       0
    -168    -287       0
     -78    -111       0
     -78    -169       0
     -78    -241       0
     -78    -369       0
    -111    -169       0
    -111    -241       0
    -111    -369       0
    -169    -241       0
    -169    -369       0
    -241    -369       0
     -22     -56       0
     -22     -79       0
     -22    -143       0
     -22    -258       0
     -22    -380       0
     -56     -79       0
     -56    -143       0
     -56    -258       0
     -56    -380       0
     -79    -143       0
     -79    -258       0
     -79    -380       0
    -143    -258       0
    -143    -380       0
    -258    -380       0
     -80    -112       0
     -80    -170       0
     -80    -288       0
    -112    -170       0
    -112    -288       0
    -170    -288       0
     -23    -144       0
     -23    -222       0
     -23    -399       0
     -23    -438       0
    -144    -222       0
    -144    -399       0
    -144    -438       0
    -222    -399       0
    -222    -438       0
    -399    -438       0
     -24    -223       0
     -24    -439       0
    -223    -439       0
     -25     -57       0
     -25    -224       0
     -25    -400       0
     -57    -224       0
     -57    -400       0
    -224    -400       0
     -58     -81       0
     -58    -401       0
     -81    -401       0
     -26     -82       0
     -26    -316       0
     -26    -402       0
     -82    -316       0
     -82    -402       0
    -316    -402       0
     -27     -59       0
     -27    -145       0
     -27    -225       0
     -27    -317       0
     -27    -403       0
     -27    -440       0
     -59    -145       0
     -59    -225       0
     -59    -317       0
     -59    -403       0
     -59    -440       0
    -145    -225       0
    -145    -317       0
    -145    -403       0
    -145    -440       0
    -225    -317       0
    -225    -403       0
    -225    -440       0
    -317    -403       0
    -317    -440       0
    -403    -440       0
     -83    -226       0
     -83    -404       0
    -226    -404       0
     -84    -318       0
    -319    -405       0
    -320    -406       0
     -28     -60       0
     -28    -171       0
     -28    -204       0
     -28    -242       0
     -28    -321       0
     -28    -381       0
     -60    -171       0
     -60    -204       0
     -60    -242       0
     -60    -321       0
     -60    -381       0
    -171    -204       0
    -171    -242       0
    -171    -321       0
    -171    -381       0
    -204    -242       0
    -204    -321       0
    -204    -381       0
    -242    -321       0
    -242    -381       0
    -321    -381       0
     -29    -289       0
     -29    -382       0
    -289    -382       0
     -30    -172       0
     -30    -290       0
     -30    -322       0
    -172    -290       0
    -172    -322       0
    -290    -322       0
     -61    -291       0
    -173    -243       0
     -31     -62       0
     -31    -205       0
     -31    -383       0
     -62    -205       0
     -62    -383       0
    -205    -383       0
     -63    -174       0
     -63    -244       0
    -174    -244       0
    -175    -206       0
    -175    -292       0
    -175    -323       0
    -206    -292       0
    -206    -323       0
    -292    -323       0
     -64    -407       0
     -65    -408       0
     -32    -113       0
     -32    -259       0
     -32    -324       0
     -32    -409       0
     -32    -433       0
    -113    -259       0
    -113    -324       0
    -113    -409       0
    -113    -433       0
    -259    -324       0
    -259    -409       0
    -259    -433       0
    -324    -409       0
    -324    -433       0
    -409    -433       0
    -146    -260       0
    -146    -325       0
    -260    -325       0
     -33    -147       0
     -33    -227       0
     -33    -343       0
     -33    -384       0
     -33    -410       0
    -147    -227       0
    -147    -343       0
    -147    -384       0
    -147    -410       0
    -227    -343       0
    -227    -384       0
    -227    -410       0
    -343    -384       0
    -343    -410       0
    -384    -410       0
     -34    -114       0
     -34    -228       0
     -34    -344       0
     -34    -385       0
    -114    -228       0
    -114    -344       0
    -114    -385       0
    -228    -344       0
    -228    -385       0
    -344    -385       0
    -176    -261       0
    -176    -386       0
    -176    -411       0
    -261    -386       0
    -261    -411       0
    -386    -411       0
     -35    -115       0
     -35    -177       0
     -35    -326       0
     -35    -345       0
     -35    -412       0
     -35    -434       0
    -115    -177       0
    -115    -326       0
    -115    -345       0
    -115    -412       0
    -115    -434       0
    -177    -326       0
    -177    -345       0
    -177    -412       0
    -177    -434       0
    -326    -345       0
    -326    -412       0
    -326    -434       0
    -345    -412       0
    -345    -434       0
    -412    -434       0
     -36    -148       0
     -36    -178       0
     -36    -229       0
     -36    -327       0
     -36    -346       0
     -36    -413       0
    -148    -178       0
    -148    -229       0
    -148    -327       0
    -148    -346       0
    -148    -413       0
    -178    -229       0
    -178    -327       0
    -178    -346       0
    -178    -413       0
    -229    -327       0
    -229    -346       0
    -229    -413       0
    -327    -346       0
    -327    -413       0
    -346    -413       0
    -116    -179       0
    -116    -230       0
    -116    -347       0
    -116    -414       0
    -179    -230       0
    -179    -347       0
    -179    -414       0
    -230    -347       0
    -230    -414       0
    -347    -414       0
     -37    -149       0
     -37    -262       0
     -37    -387       0
    -149    -262       0
    -149    -387       0
    -262    -387       0
    -117    -180       0
     -38    -181       0
     -38    -231       0
     -38    -348       0
     -38    -435       0
    -181    -231       0
    -181    -348       0
    -181    -435       0
    -231    -348       0
    -231    -435       0
    -348    -435       0
    -245    -263       0
    -245    -370       0
    -245    -415       0
    -263    -370       0
    -263    -415       0
    -370    -415       0
    -182    -246       0
    -182    -264       0
    -246    -264       0
     -85    -349       0
     -85    -416       0
    -349    -416       0
    -247    -350       0
    -247    -371       0
    -247    -441       0
    -350    -371       0
    -350    -441       0
    -371    -441       0
     -86    -183       0
     -86    -351       0
     -86    -417       0
    -183    -351       0
    -183    -417       0
    -351    -417       0
    -184    -352       0
    -184    -418       0
    -184    -442       0
    -352    -418       0
    -352    -442       0
    -418    -442       0
     -87    -185       0
     -87    -248       0
     -87    -353       0
     -87    -372       0
     -87    -419       0
    -185    -248       0
    -185    -353       0
    -185    -372       0
    -185    -419       0
    -248    -353       0
    -248    -372       0
    -248    -419       0
    -353    -372       0
    -353    -419       0
    -372    -419       0
    -186    -249       0
    -186    -373       0
    -249    -373       0
    -118    -187       0
    -118    -207       0
    -118    -250       0
    -118    -328       0
    -118    -388       0
    -187    -207       0
    -187    -250       0
    -187    -328       0
    -187    -388       0
    -207    -250       0
    -207    -328       0
    -207    -388       0
    -250    -328       0
    -250    -388       0
    -328    -388       0
     -88    -329       0
     -88    -354       0
    -329    -354       0
    -119    -251       0
    -119    -355       0
    -119    -389       0
    -251    -355       0
    -251    -389       0
    -355    -389       0
     -89    -188       0
     -89    -390       0
    -188    -390       0
     -90    -208       0
     -90    -391       0
    -208    -391       0
     -91    -120       0
     -91    -189       0
    -120    -189       0
    -190    -356       0
     -92    -191       0
     -92    -209       0
     -92    -330       0
    -191    -209       0
    -191    -330       0
    -209    -330       0
     -93    -265       0
    -293    -420       0
     -66    -192       0
     -66    -294       0
     -66    -421       0
    -192    -294       0
    -192    -421       0
    -294    -421       0
     -67     -94       0
     -67    -266       0
     -94    -266       0
     -95    -121       0
     -95    -193       0
     -95    -295       0
    -121    -193       0
    -121    -295       0
    -193    -295       0
     -68    -122       0
     -68    -194       0
    -122    -194       0
     -96    -195       0
     -96    -296       0
    -195    -296       0
     -39    -210       0
     -40    -211       0
     -69    -196       0
    -297    -357       0
    -197    -298       0
    -197    -358       0
    -298    -358       0
     -70    -198       0
    -123    -331       0
    -123    -422       0
    -331    -422       0
    -124    -150       0
    -124    -199       0
    -124    -332       0
    -150    -199       0
    -150    -332       0
    -199    -332       0
    -125    -151       0
    -125    -200       0
    -151    -200       0
    -152    -232       0
    -152    -299       0
    -152    -423       0
    -232    -299       0
    -232    -423       0
    -299    -423       0
    -126    -233       0
    -126    -300       0
    -126    -424       0
    -233    -300       0
    -233    -424       0
    -300    -424       0
     -97    -127       0
     -97    -201       0
     -97    -301       0
     -97    -333       0
     -97    -425       0
    -127    -201       0
    -127    -301       0
    -127    -333       0
    -127    -425       0
    -201    -301       0
    -201    -333       0
    -201    -425       0
    -301    -333       0
    -301    -425       0
    -333    -425       0
    -302    -334       0
    -302    -394       0
    -334    -394       0
     -98    -128       0
     -98    -202       0
     -98    -234       0
     -98    -426       0
    -128    -202       0
    -128    -234       0
    -128    -426       0
    -202    -234       0
    -202    -426       0
    -234    -426       0
     -99    -203       0
     -99    -303       0
     -99    -335       0
     -99    -395       0
    -203    -303       0
    -203    -335       0
    -203    -395       0
    -303    -335       0
    -303    -395       0
    -335    -395       0
     -41    -129       0
     -41    -153       0
     -41    -252       0
     -41    -267       0
    -129    -153       0
    -129    -252       0
    -129    -267       0
    -153    -252       0
    -153    -267       0
    -252    -267       0
     -42    -130       0
     -42    -154       0
    -130    -154       0
     -43    -131       0
     -43    -253       0
     -43    -304       0
     -43    -359       0
    -131    -253       0
    -131    -304       0
    -131    -359       0
    -253    -304       0
    -253    -359       0
    -304    -359       0
     -44    -132       0
     -44    -268       0
     -44    -305       0
    -132    -268       0
    -132    -305       0
    -268    -305       0
    -269    -306       0
     -45    -155       0
     -45    -307       0
     -45    -360       0
    -155    -307       0
    -155    -360       0
    -307    -360       0
     -46    -361       0
    -133    -156       0
    -157    -270       0
    -157    -336       0
    -270    -336       0
    -134    -235       0
    -134    -308       0
    -134    -443       0
    -235    -308       0
    -235    -443       0
    -308    -443       0
    -271    -309       0
    -135    -310       0
    -135    -337       0
    -310    -337       0
    -158    -236       0
    -158    -311       0
    -158    -338       0
    -158    -444       0
    -236    -311       0
    -236    -338       0
    -236    -444       0
    -311    -338       0
    -311    -444       0
    -338    -444       0
    -237    -445       0
      -1      -9       0
      -1     -16       0
      -1     -32       0
      -9     -16       0
      -9     -32       0
     -16     -32       0
      -2      -7       0
      -2     -17       0
      -2     -28       0
      -2     -39       0
      -2     -41       0
      -7     -17       0
      -7     -28       0
      -7     -39       0
      -7     -41       0
     -17     -28       0
     -17     -39       0
     -17     -41       0
     -28     -39       0
     -28     -41       0
     -39     -41       0
     -10     -11       0
     -10     -42       0
     -11     -42       0
      -3     -12       0
      -3     -23       0
      -3     -29       0
      -3     -33       0
     -12     -23       0
     -12     -29       0
     -12     -33       0
     -23     -29       0
     -23     -33       0
     -29     -33       0
     -18     -24       0
     -18     -34       0
     -18     -43       0
     -24     -34       0
     -24     -43       0
     -34     -43       0
      -4     -13       0
      -4     -19       0
      -4     -25       0
      -4     -44       0
     -13     -19       0
     -13     -25       0
     -13     -44       0
     -19     -25       0
     -19     -44       0
     -25     -44       0
     -14     -20       0
     -14     -26       0
     -14     -30       0
     -14     -35       0
     -20     -26       0
     -20     -30       0
     -20     -35       0
     -26     -30       0
     -26     -35       0
     -30     -35       0
      -8     -15       0
      -8     -21       0
      -8     -27       0
      -8     -36       0
      -8     -45       0
     -15     -21       0
     -15     -27       0
     -15     -36       0
     -15     -45       0
     -21     -27       0
     -21     -36       0
     -21     -45       0
     -27     -36       0
     -27     -45       0
     -36     -45       0
      -5     -22       0
      -5     -31       0
      -5     -37       0
      -5     -40       0
     -22     -31       0
     -22     -37       0
     -22     -40       0
     -31     -37       0
     -31     -40       0
     -37     -40       0
      -6     -38       0
      -6     -46       0
     -38     -46       0
     -47     -51       0
     -47     -60       0
     -47     -69       0
     -51     -60       0
     -51     -69       0
     -60     -69       0
     -48     -52       0
     -48     -57       0
     -48     -64       0
     -52     -57       0
     -52     -64       0
     -57     -64       0
     -53     -58       0
     -49     -54       0
     -49     -61       0
     -54     -61       0
     -55     -59       0
     -55     -65       0
     -55     -66       0
     -59     -65       0
     -59     -66       0
     -65     -66       0
     -50     -56       0
     -50     -62       0
     -50     -67       0
     -56     -62       0
     -56     -67       0
     -62     -67       0
     -63     -68       0
     -63     -70       0
     -68     -70       0
     -71     -93       0
     -73     -85       0
     -73     -88       0
     -85     -88       0
     -74     -76       0
     -74     -81       0
     -74     -89       0
     -76     -81       0
     -76     -89       0
     -81     -89       0
     -77     -82       0
     -77     -86       0
     -77     -97       0
     -82     -86       0
     -82     -97       0
     -86     -97       0
     -72     -78       0
     -72     -83       0
     -72     -87       0
     -72     -98       0
     -78     -83       0
     -78     -87       0
     -78     -98       0
     -83     -87       0
     -83     -98       0
     -87     -98       0
     -79     -90       0
     -79     -94       0
     -90     -94       0
     -80     -91       0
     -80     -95       0
     -91     -95       0
     -75     -84       0
     -75     -92       0
     -75     -96       0
     -75     -99       0
     -84     -92       0
     -84     -96       0
     -84     -99       0
     -92     -96       0
     -92     -99       0
     -96     -99       0
    -100    -106       0
    -100    -113       0
    -100    -123       0
    -106    -113       0
    -106    -123       0
    -113    -123       0
    -107    -118       0
    -107    -124       0
    -107    -129       0
    -118    -124       0
    -118    -129       0
    -124    -129       0
    -103    -125       0
    -103    -130       0
    -103    -133       0
    -125    -130       0
    -125    -133       0
    -130    -133       0
    -101    -108       0
    -101    -114       0
    -101    -119       0
    -101    -131       0
    -101    -134       0
    -108    -114       0
    -108    -119       0
    -108    -131       0
    -108    -134       0
    -114    -119       0
    -114    -131       0
    -114    -134       0
    -119    -131       0
    -119    -134       0
    -131    -134       0
    -104    -109       0
    -104    -126       0
    -104    -132       0
    -109    -126       0
    -109    -132       0
    -126    -132       0
    -105    -110       0
    -105    -115       0
    -105    -127       0
    -105    -135       0
    -110    -115       0
    -110    -127       0
    -110    -135       0
    -115    -127       0
    -115    -135       0
    -127    -135       0
    -111    -116       0
    -111    -128       0
    -116    -128       0
    -112    -117       0
    -112    -120       0
    -112    -121       0
    -117    -120       0
    -117    -121       0
    -120    -121       0
    -102    -122       0
    -136    -140       0
    -136    -150       0
    -136    -153       0
    -140    -150       0
    -140    -153       0
    -150    -153       0
    -151    -154       0
    -151    -156       0
    -154    -156       0
    -146    -157       0
    -137    -144       0
    -137    -147       0
    -137    -152       0
    -144    -147       0
    -144    -152       0
    -147    -152       0
    -138    -141       0
    -142    -145       0
    -142    -148       0
    -142    -155       0
    -142    -158       0
    -145    -148       0
    -145    -155       0
    -145    -158       0
    -148    -155       0
    -148    -158       0
    -155    -158       0
    -139    -143       0
    -139    -149       0
    -143    -149       0
    -165    -171       0
    -165    -182       0
    -165    -187       0
    -165    -196       0
    -165    -199       0
    -171    -182       0
    -171    -187       0
    -171    -196       0
    -171    -199       0
    -182    -187       0
    -182    -196       0
    -182    -199       0
    -187    -196       0
    -187    -199       0
    -196    -199       0
    -162    -200       0
    -159    -166       0
    -159    -176       0
    -159    -188       0
    -166    -176       0
    -166    -188       0
    -176    -188       0
    -163    -167       0
    -163    -172       0
    -163    -177       0
    -163    -183       0
    -163    -197       0
    -163    -201       0
    -167    -172       0
    -167    -177       0
    -167    -183       0
    -167    -197       0
    -167    -201       0
    -172    -177       0
    -172    -183       0
    -172    -197       0
    -172    -201       0
    -177    -183       0
    -177    -197       0
    -177    -201       0
    -183    -197       0
    -183    -201       0
    -197    -201       0
    -164    -168       0
    -164    -178       0
    -164    -184       0
    -164    -192       0
    -168    -178       0
    -168    -184       0
    -168    -192       0
    -178    -184       0
    -178    -192       0
    -184    -192       0
    -169    -173       0
    -169    -179       0
    -169    -185       0
    -169    -202       0
    -173    -179       0
    -173    -185       0
    -173    -202       0
    -179    -185       0
    -179    -202       0
    -185    -202       0
    -170    -180       0
    -170    -189       0
    -170    -193       0
    -180    -189       0
    -180    -193       0
    -189    -193       0
    -160    -174       0
    -160    -186       0
    -160    -194       0
    -160    -198       0
    -174    -186       0
    -174    -194       0
    -174    -198       0
    -186    -194       0
    -186    -198       0
    -194    -198       0
    -181    -190       0
    -161    -175       0
    -161    -191       0
    -161    -195       0
    -161    -203       0
    -175    -191       0
    -175    -195       0
    -175    -203       0
    -191    -195       0
    -191    -203       0
    -195    -203       0
    -204    -207       0
    -204    -210       0
    -207    -210       0
    -205    -208       0
    -205    -211       0
    -208    -211       0
    -206    -209       0
    -212    -219       0
    -212    -222       0
    -212    -227       0
    -212    -232       0
    -219    -222       0
    -219    -227       0
    -219    -232       0
    -222    -227       0
    -222    -232       0
    -227    -232       0
    -217    -223       0
    -217    -228       0
    -217    -235       0
    -223    -228       0
    -223    -235       0
    -228    -235       0
    -213    -220       0
    -213    -224       0
    -213    -233       0
    -220    -224       0
    -220    -233       0
    -224    -233       0
    -214    -218       0
    -221    -225       0
    -221    -229       0
    -221    -236       0
    -225    -229       0
    -225    -236       0
    -229    -236       0
    -215    -226       0
    -215    -230       0
    -215    -234       0
    -226    -230       0
    -226    -234       0
    -230    -234       0
    -216    -231       0
    -216    -237       0
    -231    -237       0
    -238    -245       0
    -239    -242       0
    -239    -246       0
    -239    -250       0
    -239    -252       0
    -242    -246       0
    -242    -250       0
    -242    -252       0
    -246    -250       0
    -246    -252       0
    -250    -252       0
    -240    -247       0
    -240    -251       0
    -240    -253       0
    -247    -251       0
    -247    -253       0
    -251    -253       0
    -241    -243       0
    -241    -248       0
    -243    -248       0
    -244    -249       0
    -254    -259       0
    -254    -263       0
    -259    -263       0
    -255    -264       0
    -255    -267       0
    -264    -267       0
    -260    -265       0
    -260    -270       0
    -265    -270       0
    -256    -268       0
    -257    -261       0
    -257    -269       0
    -257    -271       0
    -261    -269       0
    -261    -271       0
    -269    -271       0
    -258    -262       0
    -258    -266       0
    -262    -266       0
    -272    -289       0
    -272    -293       0
    -272    -299       0
    -289    -293       0
    -289    -299       0
    -293    -299       0
    -277    -282       0
    -277    -297       0
    -277    -304       0
    -277    -308       0
    -282    -297       0
    -282    -304       0
    -282    -308       0
    -297    -304       0
    -297    -308       0
    -304    -308       0
    -273    -283       0
    -273    -300       0
    -273    -305       0
    -283    -300       0
    -283    -305       0
    -300    -305       0
    -278    -284       0
    -278    -306       0
    -278    -309       0
    -284    -306       0
    -284    -309       0
    -306    -309       0
    -285    -290       0
    -285    -298       0
    -285    -301       0
    -285    -310       0
    -290    -298       0
    -290    -301       0
    -290    -310       0
    -298    -301       0
    -298    -310       0
    -301    -310       0
    -274    -279       0
    -274    -286       0
    -274    -291       0
    -279    -286       0
    -279    -291       0
    -286    -291       0
    -275    -287       0
    -275    -294       0
    -275    -307       0
    -275    -311       0
    -287    -294       0
    -287    -307       0
    -287    -311       0
    -294    -307       0
    -294    -311       0
    -307    -311       0
    -276    -280       0
    -276    -302       0
    -280    -302       0
    -288    -295       0
    -281    -292       0
    -281    -296       0
    -281    -303       0
    -292    -296       0
    -292    -303       0
    -296    -303       0
    -319    -324       0
    -319    -331       0
    -324    -331       0
    -312    -321       0
    -312    -328       0
    -312    -332       0
    -321    -328       0
    -321    -332       0
    -328    -332       0
    -313    -325       0
    -313    -336       0
    -325    -336       0
    -320    -329       0
    -316    -322       0
    -316    -326       0
    -316    -333       0
    -316    -337       0
    -322    -326       0
    -322    -333       0
    -322    -337       0
    -326    -333       0
    -326    -337       0
    -333    -337       0
    -314    -317       0
    -314    -327       0
    -314    -338       0
    -317    -327       0
    -317    -338       0
    -327    -338       0
    -315    -334       0
    -318    -323       0
    -318    -330       0
    -318    -335       0
    -323    -330       0
    -323    -335       0
    -330    -335       0
    -341    -343       0
    -349    -354       0
    -344    -350       0
    -344    -355       0
    -344    -357       0
    -344    -359       0
    -350    -355       0
    -350    -357       0
    -350    -359       0
    -355    -357       0
    -355    -359       0
    -357    -359       0
    -345    -351       0
    -345    -358       0
    -351    -358       0
    -339    -346       0
    -339    -352       0
    -339    -360       0
    -346    -352       0
    -346    -360       0
    -352    -360       0
    -340    -347       0
    -340    -353       0
    -347    -353       0
    -342    -348       0
    -342    -356       0
    -342    -361       0
    -348    -356       0
    -348    -361       0
    -356    -361       0
    -362    -364       0
    -362    -367       0
    -362    -370       0
    -364    -367       0
    -364    -370       0
    -367    -370       0
    -365    -368       0
    -365    -371       0
    -368    -371       0
    -363    -369       0
    -363    -372       0
    -369    -372       0
    -366    -373       0
    -374    -377       0
    -374    -381       0
    -374    -388       0
    -377    -381       0
    -377    -388       0
    -381    -388       0
    -375    -382       0
    -375    -384       0
    -382    -384       0
    -378    -385       0
    -378    -389       0
    -385    -389       0
    -379    -386       0
    -379    -390       0
    -386    -390       0
    -376    -380       0
    -376    -383       0
    -376    -387       0
    -376    -391       0
    -380    -383       0
    -380    -387       0
    -380    -391       0
    -383    -387       0
    -383    -391       0
    -387    -391       0
    -392    -394       0
    -393    -395       0
    -396    -405       0
    -396    -409       0
    -396    -415       0
    -396    -422       0
    -405    -409       0
    -405    -415       0
    -405    -422       0
    -409    -415       0
    -409    -422       0
    -415    -422       0
    -399    -410       0
    -399    -420       0
    -399    -423       0
    -410    -420       0
    -410    -423       0
    -420    -423       0
    -397    -406       0
    -397    -416       0
    -406    -416       0
    -400    -407       0
    -400    -424       0
    -407    -424       0
    -398    -401       0
    -398    -411       0
    -401    -411       0
    -402    -412       0
    -402    -417       0
    -402    -425       0
    -412    -417       0
    -412    -425       0
    -417    -425       0
    -403    -408       0
    -403    -413       0
    -403    -418       0
    -403    -421       0
    -408    -413       0
    -408    -418       0
    -408    -421       0
    -413    -418       0
    -413    -421       0
    -418    -421       0
    -404    -414       0
    -404    -419       0
    -404    -426       0
    -414    -419       0
    -414    -426       0
    -419    -426       0
    -427    -429       0
    -427    -433       0
    -429    -433       0
    -430    -431       0
    -432    -434       0
    -428    -435       0
    -436    -438       0
    -439    -441       0
    -439    -443       0
    -441    -443       0
    -440    -442       0
    -440    -444       0
    -442    -444       0
    -437    -445       0
       1       2       3       4       5       6       0
       7       8       0
       9      10       0
      11      12      13      14      15       0
      16      17      18      19      20      21      22       0
      23      24      25      26      27       0
      28      29      30      31       0
      32      33      34      35      36      37      38       0
      39      40       0
      41      42      43      44      45      46       0
      47      48      49      50       0
      51      52      53      54      55      56       0
      57      58      59       0
      60      61      62      63       0
      64      65       0
      66      67      68       0
      69      70       0
      71      72       0
      73      74      75       0
      76      77      78      79      80       0
      81      82      83      84       0
      85      86      87       0
      88      89      90      91      92       0
      93      94      95      96       0
      97      98      99       0
     100     101     102       0
     103     104     105       0
     106     107     108     109     110     111     112       0
     113     114     115     116     117       0
     118     119     120       0
     121     122       0
     123     124     125     126     127     128       0
     129     130     131     132       0
     133     134     135       0
     136     137     138     139       0
     140     141     142     143       0
     144     145       0
     146     147     148     149       0
     150     151     152       0
     153     154     155       0
     156     157     158       0
     159     160     161       0
     162     163     164       0
     165     166     167     168     169     170       0
     171     172     173     174     175       0
     176     177     178     179     180     181       0
     182     183     184     185     186       0
     187     188     189     190     191       0
     192     193     194     195       0
     196     197     198       0
     199     200     201     202     203       0
     204     205     206       0
     207     208     209       0
     210     211       0
     212     213     214     215     216       0
     217     218       0
     219     220     221       0
     222     223     224     225     226       0
     227     228     229     230     231       0
     232     233     234       0
     235     236     237       0
     238     239     240     241       0
     242     243     244       0
     245     246     247     248     249       0
     250     251       0
     252     253       0
     254     255     256     257     258       0
     259     260     261     262       0
     263     264       0
     265     266       0
     267     268     269       0
     270     271       0
     272     273     274       0
     275     276       0
     277     278     279     280     281       0
     282     283     284     285     286     287     288       0
     289     290     291     292       0
     293     294     295     296       0
     297     298       0
     299     300     301     302     303       0
     304     305     306     307       0
     308     309     310     311       0
     312     313     314     315       0
     316     317     318       0
     319     320       0
     321     322     323       0
     324     325     326     327       0
     328     329     330       0
     331     332     333     334     335       0
     336     337     338       0
     339     340       0
     341     342       0
     343     344     345     346     347     348       0
     349     350     351     352     353       0
     354     355     356       0
     357     358       0
     359     360     361       0
     362     363       0
     364     365     366       0
     367     368     369       0
     370     371     372     373       0
     374     375     376       0
     377     378     379     380       0
     381     382     383       0
     384     385     386     387       0
     388     389     390     391       0
     392     393       0
     394     395       0
     396     397     398       0
     399     400     401     402     403     404       0
     405     406       0
     407     408       0
     409     410     411     412     413     414       0
     415     416     417     418     419       0
     420     421       0
     422     423     424     425     426       0
     427     428       0
     429     430       0
     431     432       0
     433     434     435       0
     436     437       0
     438     439     440       0
     441     442       0
     443     444     445       0
